58
1 0 4
2 0 3
2 1 3
3 0 6
4 0 4
4 3 4
5 1 2
5 2 1
5 4 6
6 4 6
7 0 3
7 2 1
7 3 1
7 4 3
7 6 3
8 0 4
8 1 3
8 2 4
8 3 5
8 6 1
9 0 1
9 1 6
9 7 5
9 8 3
10 1 3
10 2 6
10 3 5
10 5 5
10 6 4
10 7 1
10 9 4
11 0 2
11 1 4
11 4 3
11 6 5
11 7 2
11 8 4
12 0 4
12 5 5
12 6 4
12 8 3
12 9 4
12 10 1
12 11 1
13 2 3
13 3 6
13 6 4
13 7 4
13 8 4
13 9 5
13 10 3
14 4 3
14 5 2
14 6 5
14 11 1
15 2 5
15 4 5
15 7 1
15 8 3
15 9 2
15 12 2
15 13 6
15 14 3
16 4 6
16 5 4
16 6 5
16 13 2
16 15 6
17 0 2
17 1 6
17 5 3
17 11 6
17 13 4
17 14 3
17 16 4
18 1 2
18 2 5
18 5 3
18 11 6
18 12 6
18 15 6
18 16 6
19 0 6
19 1 3
19 2 4
19 3 2
19 4 3
19 6 3
19 7 3
19 12 4
19 13 1
19 15 1
19 16 1
19 18 2
20 0 3
20 1 3
20 2 4
20 3 4
20 4 3
20 5 1
20 7 6
20 11 2
20 13 1
20 16 1
21 0 6
21 3 2
21 6 5
21 7 6
21 10 2
21 12 5
21 13 2
21 16 6
21 18 4
21 19 1
22 1 2
22 3 4
22 4 3
22 5 1
22 6 2
22 7 1
22 8 4
22 9 3
22 13 2
22 14 2
22 15 3
22 18 2
22 19 6
22 21 4
23 0 4
23 3 4
23 4 3
23 8 4
23 9 1
23 13 6
23 14 3
23 18 5
23 21 3
24 2 6
24 3 6
24 5 1
24 7 1
24 15 5
24 16 1
24 17 5
24 18 6
25 1 3
25 3 5
25 6 5
25 7 4
25 9 6
25 10 5
25 11 2
25 16 6
25 17 2
25 19 5
25 20 1
25 21 5
25 22 1
25 23 1
25 24 1
26 1 3
26 2 6
26 5 6
26 9 4
26 10 3
26 11 5
26 16 6
26 18 4
26 20 4
26 24 6
27 0 1
27 4 4
27 5 4
27 7 1
27 11 5
27 13 6
27 16 3
27 19 5
27 20 6
27 22 2
27 24 5
27 25 5
27 26 4
28 1 6
28 3 4
28 6 6
28 8 4
28 11 1
28 15 3
28 18 1
28 19 3
28 20 3
28 24 3
28 25 2
29 5 6
29 6 4
29 7 5
29 8 4
29 9 4
29 12 4
29 13 2
29 16 2
29 18 4
29 19 3
29 20 2
29 22 4
29 25 6
29 27 5
29 28 6
30 1 2
30 4 1
30 5 3
30 6 2
30 8 2
30 11 1
30 13 5
30 15 1
30 16 6
30 22 1
30 23 1
30 24 1
30 26 2
30 29 3
31 1 4
31 2 3
31 3 2
31 4 4
31 5 3
31 7 1
31 8 5
31 9 6
31 13 5
31 15 5
31 17 1
31 19 2
31 20 4
31 21 4
31 22 5
31 25 3
31 27 6
31 28 2
31 29 6
31 30 2
32 3 4
32 4 5
32 6 1
32 8 3
32 9 2
32 11 1
32 13 5
32 14 4
32 15 4
32 17 5
32 18 5
32 21 3
32 24 2
32 28 2
32 31 2
33 0 2
33 6 4
33 9 6
33 10 3
33 12 6
33 13 1
33 15 5
33 16 3
33 17 5
33 19 2
33 20 3
33 21 6
33 24 6
33 25 4
33 28 4
33 32 5
34 0 5
34 3 1
34 5 5
34 6 2
34 10 5
34 11 6
34 13 3
34 16 1
34 18 1
34 21 4
34 25 2
34 31 1
35 1 1
35 2 6
35 4 4
35 6 2
35 7 3
35 10 4
35 14 6
35 15 4
35 16 4
35 17 1
35 18 3
35 20 1
35 23 2
35 25 3
35 26 5
35 27 2
35 28 6
35 30 1
35 32 6
35 34 4
36 2 5
36 4 4
36 7 4
36 8 6
36 9 1
36 10 6
36 13 4
36 14 3
36 17 4
36 18 4
36 25 1
36 26 4
36 27 3
36 28 3
37 0 4
37 3 1
37 4 2
37 6 5
37 12 2
37 13 6
37 14 4
37 15 1
37 17 6
37 18 6
37 22 6
37 25 3
37 26 3
37 27 5
37 28 5
37 29 4
37 36 6
38 1 2
38 3 5
38 4 3
38 5 3
38 10 2
38 11 1
38 13 2
38 14 4
38 18 1
38 19 3
38 22 5
38 23 5
38 25 1
38 27 1
38 28 6
38 29 2
38 31 4
38 33 5
38 34 2
38 35 2
38 36 2
38 37 3
39 2 6
39 4 1
39 7 6
39 11 5
39 14 1
39 15 5
39 18 3
39 20 6
39 27 4
39 28 5
39 29 2
39 30 5
39 32 2
39 33 1
39 35 1
39 38 4
40 0 3
40 1 5
40 2 3
40 3 1
40 5 5
40 6 2
40 10 3
40 13 6
40 14 3
40 17 4
40 18 4
40 19 5
40 20 1
40 21 1
40 22 2
40 24 4
40 27 4
40 28 5
40 34 3
40 36 1
41 2 6
41 3 2
41 4 4
41 6 3
41 8 1
41 10 5
41 12 2
41 15 4
41 16 6
41 18 4
41 20 5
41 22 2
41 26 4
41 27 1
41 29 3
41 30 1
41 32 2
41 33 2
41 34 3
41 35 1
41 36 6
41 40 3
42 0 1
42 1 4
42 4 5
42 7 1
42 9 3
42 12 3
42 13 4
42 14 5
42 15 3
42 18 3
42 19 3
42 20 5
42 21 5
42 28 6
42 29 4
42 30 3
42 33 4
42 35 5
42 37 3
42 40 4
42 41 4
43 0 6
43 1 2
43 2 1
43 5 5
43 9 2
43 10 4
43 16 6
43 17 4
43 18 2
43 20 4
43 21 2
43 22 5
43 25 6
43 26 4
43 29 2
43 32 1
43 33 1
43 34 2
43 37 6
43 38 4
43 39 6
44 1 3
44 2 5
44 4 3
44 5 1
44 8 1
44 13 2
44 14 2
44 15 5
44 19 3
44 21 5
44 23 4
44 29 2
44 32 5
44 36 2
44 38 2
44 39 2
44 40 5
44 41 4
45 0 5
45 1 5
45 3 6
45 5 1
45 6 3
45 7 2
45 8 6
45 10 5
45 12 5
45 14 4
45 16 1
45 17 4
45 18 5
45 19 2
45 23 5
45 24 6
45 26 4
45 28 5
45 29 6
45 31 6
45 32 1
45 34 1
45 36 5
45 37 3
45 38 1
45 39 4
46 2 4
46 3 5
46 5 6
46 7 2
46 9 6
46 10 1
46 15 5
46 17 6
46 18 5
46 19 3
46 20 4
46 23 4
46 25 6
46 29 2
46 34 4
46 36 1
46 37 2
46 40 3
46 41 3
46 42 1
46 43 4
47 0 4
47 2 6
47 7 5
47 13 4
47 14 1
47 15 1
47 17 3
47 21 3
47 22 4
47 23 3
47 24 3
47 25 3
47 27 4
47 29 3
47 30 6
47 31 1
47 32 4
47 34 3
47 35 2
47 36 3
47 37 3
47 39 5
47 43 1
47 46 2
48 1 5
48 2 3
48 4 1
48 5 3
48 6 4
48 10 3
48 11 2
48 12 4
48 14 5
48 16 4
48 17 6
48 19 1
48 23 2
48 25 3
48 26 2
48 30 5
48 31 3
48 33 3
48 37 6
48 38 5
48 39 3
48 40 6
48 42 6
48 45 4
48 47 5
49 1 1
49 2 2
49 3 3
49 4 3
49 8 3
49 11 6
49 12 3
49 13 3
49 14 6
49 19 1
49 20 2
49 21 2
49 22 2
49 23 3
49 24 4
49 25 1
49 28 2
49 30 5
49 31 1
49 33 1
49 37 3
49 39 6
49 41 3
49 42 2
49 44 4
49 46 3
49 47 5
50 0 1
50 2 1
50 3 2
50 6 4
50 7 6
50 10 4
50 11 5
50 12 5
50 15 2
50 16 2
50 18 5
50 19 3
50 22 2
50 23 4
50 28 1
50 29 1
50 32 5
50 34 4
50 35 5
50 38 4
50 39 3
50 40 5
50 41 1
50 42 5
50 46 3
51 0 3
51 1 5
51 3 3
51 6 1
51 12 6
51 13 2
51 14 6
51 15 5
51 16 6
51 17 6
51 20 2
51 21 6
51 22 5
51 25 4
51 26 3
51 27 3
51 28 2
51 30 4
51 32 3
51 33 5
51 34 3
51 37 1
51 38 6
51 39 6
51 41 5
51 42 4
51 43 4
51 45 5
51 50 3
52 4 6
52 6 4
52 7 1
52 9 5
52 10 3
52 11 2
52 13 1
52 14 6
52 17 5
52 21 5
52 26 1
52 27 1
52 29 1
52 31 6
52 33 2
52 34 4
52 36 3
52 39 5
52 40 1
52 41 4
52 48 1
52 49 3
53 0 6
53 3 2
53 7 1
53 8 1
53 11 1
53 12 4
53 13 3
53 15 6
53 18 1
53 19 5
53 22 3
53 23 1
53 24 2
53 26 4
53 27 3
53 28 5
53 30 1
53 31 4
53 32 1
53 38 5
53 39 2
53 41 2
53 45 1
53 46 2
53 51 6
53 52 2
54 1 1
54 5 3
54 9 6
54 10 2
54 12 1
54 14 2
54 17 2
54 19 3
54 20 6
54 24 3
54 25 5
54 26 1
54 28 4
54 29 2
54 31 2
54 32 6
54 33 6
54 34 3
54 36 1
54 42 5
54 43 3
54 45 6
54 49 1
54 50 4
54 51 5
55 0 3
55 1 6
55 2 4
55 3 2
55 6 5
55 8 3
55 9 1
55 11 4
55 12 6
55 13 1
55 15 6
55 16 5
55 17 5
55 18 3
55 20 1
55 22 5
55 23 2
55 26 4
55 27 4
55 30 5
55 31 3
55 35 4
55 38 3
55 41 4
55 42 6
55 43 2
55 47 3
55 48 5
55 53 5
55 54 3
56 0 6
56 1 6
56 2 1
56 7 2
56 8 4
56 9 2
56 10 4
56 11 5
56 12 1
56 14 2
56 19 1
56 20 6
56 30 3
56 31 2
56 33 3
56 38 1
56 39 4
56 41 3
56 44 6
56 46 6
56 48 4
56 54 4
56 55 1
57 1 1
57 2 6
57 3 5
57 5 5
57 6 6
57 7 1
57 8 4
57 9 5
57 10 1
57 11 5
57 13 6
57 14 5
57 20 6
57 21 4
57 22 3
57 24 5
57 25 6
57 26 1
57 27 5
57 28 1
57 31 3
57 36 1
57 39 6
57 40 3
57 44 5
57 46 6
57 47 6
57 48 5
57 51 2
57 52 4
57 53 4
57 54 5
57 55 6
